
Gurobi 9.5.1 (mac64[x86]) logging started Wed Jun  8 00:04:02 2022

Set parameter LogFile to value "/Users/keyvanmajd/Documents/GitHub/NNRepLayer_v2/demos/examples/tc7_walking_example/repair_inp_out_constraint/repair_net/logs/opt_log_6_8_2022_0_2_50.log"
Gurobi Optimizer version 9.5.1 build v9.5.1rc2 (mac64[x86])
Thread count: 4 physical cores, 8 logical processors, using up to 8 threads
Optimize a model with 45883 rows, 28266 columns and 129659 nonzeros
Model fingerprint: 0x1cc44aa4
Model has 170 quadratic objective terms
Variable types: 12042 continuous, 16224 integer (16224 binary)
Coefficient statistics:
  Matrix range     [1e-03, 1e+02]
  Objective range  [1e-03, 2e-01]
  QObjective range [1e-02, 2e+00]
  Bounds range     [1e+00, 1e+02]
  RHS range        [2e-04, 1e+02]
Presolve removed 27570 rows and 10912 columns
Presolve time: 0.54s
Presolved: 18313 rows, 17354 columns, 85673 nonzeros
Presolved model has 170 quadratic objective terms
Variable types: 11946 continuous, 5408 integer (5408 binary)
Found heuristic solution: objective 5.1309647
Root relaxation presolve removed 5408 rows and 5408 columns
Root relaxation presolved: 12905 rows, 11946 columns, 74857 nonzeros
Root relaxation presolved model has 170 quadratic objective terms


Root simplex log...

Iteration    Objective       Primal Inf.    Dual Inf.      Time
   12777    2.3652039e+00   1.035761e+02   0.000000e+00      5s
   14998    2.3652039e+00   0.000000e+00   0.000000e+00      5s
   14998    2.3652039e+00   0.000000e+00   0.000000e+00      5s

Root relaxation: objective 2.365204e+00, 14998 iterations, 2.39 seconds (3.57 work units)

    Nodes    |    Current Node    |     Objective Bounds      |     Work
 Expl Unexpl |  Obj  Depth IntInf | Incumbent    BestBd   Gap | It/Node Time

     0     0    2.36520    0  965    5.13096    2.36520  53.9%     -    5s
H    0     0                       5.1141776    2.36520  53.8%     -    5s
H    0     0                       5.0720608    2.36520  53.4%     -   23s
     0     0    2.36520    0  748    5.07206    2.36520  53.4%     -   23s
H    0     0                       5.0021686    2.36521  52.7%     -   46s
     0     0    2.36521    0  701    5.00217    2.36521  52.7%     -   46s
     0     0    2.36521    0  491    5.00217    2.36521  52.7%     -   47s
     0     0    2.36521    0  726    5.00217    2.36521  52.7%     -   61s
     0     0    2.36521    0  779    5.00217    2.36521  52.7%     -   63s
     0     0    2.36521    0  785    5.00217    2.36521  52.7%     -   64s
     0     0    2.36521    0  789    5.00217    2.36521  52.7%     -   66s
H    0     0                       4.9770507    2.36521  52.5%     -   67s
     0     0    2.36521    0  782    4.97705    2.36521  52.5%     -   67s
     0     0    2.36521    0  797    4.97705    2.36521  52.5%     -   69s
H    0     0                       4.0277807    2.36521  41.3%     -   80s
     0     2    2.36521    0  797    4.02778    2.36521  41.3%     -   81s
     3     8    2.43203    2 1352    4.02778    2.36521  41.3%  1807   85s
H   31    36                       4.0190954    2.36521  41.2%   570   99s
H   32    36                       3.8051682    2.36521  37.8%   555   99s
    42    49    2.43203   12 1324    3.80517    2.36521  37.8%   456  100s
   759   794    2.48362  202 1277    3.80517    2.36521  37.8%  64.0  105s
  1492  1553    2.48893  389 1069    3.80517    2.36521  37.8%  57.3  110s
  1809  1847    2.48893  437 1131    3.80517    2.36521  37.8%  71.1  115s
  1969  2033    2.73055  468 1596    3.80517    2.36521  37.8%  86.2  120s
  2597  2702    3.08738  608 1593    3.80517    2.36521  37.8%  84.9  125s
  3182  3261    3.08738  674 1523    3.80517    2.36521  37.8%  78.2  130s
  3355  3389    3.09202  676 1581    3.80517    2.36521  37.8%  82.1  137s
  3679  3751    3.10301  824 1442    3.80517    2.36521  37.8%  94.5  141s
  3897  4015    3.13981  893 1357    3.80517    2.36521  37.8%  95.4  145s
  4169  4232    3.13981  984 1281    3.80517    2.36521  37.8%  95.3  150s
  4259  4318    3.13981  994 1271    3.80517    2.36521  37.8%  96.0  180s
H 4291  4318                       3.8030126    2.36521  37.8%  96.1  180s
  4510  4517    3.19099 1068 1217    3.80301    2.36521  37.8%   101  185s
  4600  4621    3.14437 1090 1194    3.80301    2.36521  37.8%   106  190s
  4738  4737    3.14437 1168 1141    3.80301    2.36521  37.8%   114  198s
  4772  4835    3.14437 1176 1148    3.80301    2.36521  37.8%   131  200s
  5096  5194    3.14437 1285 1107    3.80301    2.36521  37.8%   135  206s
  5230  5195    3.68483  983  797    3.80301    2.36521  37.8%   136  214s
H 5231  4936                       3.8026400    2.36521  37.8%   136  217s
  5233  4937    2.48362  257  783    3.80264    2.36521  37.8%   136  229s
  5234  4938    3.14437 1132  667    3.80264    2.36521  37.8%   136  241s
  5235  4938    2.55789   29  760    3.80264    2.36521  37.8%   136  248s
  5236  4939    2.55817  281  750    3.80264    2.36521  37.8%   136  260s
  5237  4940    3.68550 1079  808    3.80264    2.36521  37.8%   136  275s
  5238  4940    2.55817  198  802    3.80264    2.36521  37.8%   136  297s
  5240  4942    2.47285  168  821    3.80264    2.36521  37.8%   136  303s
  5241  4942    2.83653  485  608    3.80264    2.36521  37.8%   136  305s
  5242  4943    2.86079  946  772    3.80264    2.36521  37.8%   136  315s
H 5242  4695                       3.8012070    2.36521  37.8%   136  317s
  5244  4696    2.99744  594  814    3.80121    2.36521  37.8%   136  324s
  5245  4697    2.55817  142  824    3.80121    2.36521  37.8%   136  335s
  5247  4698    2.45979   83  824    3.80121    2.36521  37.8%   136  340s
  5248  4702    2.43195   15 1430    3.80121    2.36521  37.8%   157  345s
  5258  4711    2.43203   17 1481    3.80121    2.36521  37.8%   160  350s
  5276  4724    2.44435   20 1540    3.80121    2.36521  37.8%   161  367s
H 5277  4488                       3.8009567    2.36521  37.8%   161  367s

Cutting planes:
  Gomory: 1
  Implied bound: 103
  MIR: 1345
  Flow cover: 741
  Relax-and-lift: 26

Explored 5281 nodes (921661 simplex iterations) in 367.62 seconds (518.88 work units)
Thread count was 8 (of 8 available processors)

Solution count 10: 3.80096 3.80121 3.80264 ... 5.07206

Solve interrupted
Best objective 3.800956739287e+00, best bound 2.365209481944e+00, gap 37.7733%
